solution status: optimal solution found
objective value:                                    4
C0030                                               1 	(obj:0)
C0032                                               1 	(obj:0)
C0033                                               1 	(obj:0)
C0035                                               1 	(obj:0)
C0043                                               1 	(obj:0)
C0044                                               1 	(obj:0)
C0045                                               1 	(obj:0)
C0046                                               1 	(obj:0)
C0268                                               1 	(obj:0)
C0271                                               1 	(obj:0)
C0281                                               1 	(obj:0)
C0282                                               1 	(obj:0)
C0397                                               1 	(obj:0)
C0399                                               1 	(obj:0)
C0407                                               1 	(obj:0)
C0408                                               1 	(obj:0)
C0529                                               1 	(obj:0)
C0530                                               1 	(obj:0)
C0531                                               1 	(obj:0)
C0533                                               1 	(obj:0)
C0538                                               1 	(obj:0)
C0540                                               1 	(obj:0)
C0542                                               1 	(obj:0)
C0544                                               1 	(obj:0)
C0631                                               1 	(obj:0)
C0632                                               1 	(obj:0)
C0635                                               1 	(obj:0)
C0636                                               1 	(obj:0)
C0645                                               1 	(obj:0)
C0646                                               1 	(obj:0)
C0649                                               1 	(obj:0)
C0650                                               1 	(obj:0)
C0654                                               1 	(obj:0)
C0655                                               1 	(obj:0)
C0660                                               1 	(obj:0)
C0661                                               1 	(obj:0)
C0663                                               1 	(obj:0)
C0664                                               1 	(obj:0)
C0665                                               1 	(obj:0)
C0666                                               1 	(obj:0)
C0674                                               1 	(obj:0)
C0676                                               1 	(obj:0)
C0677                                               1 	(obj:0)
C0678                                               1 	(obj:0)
C1159                                               1 	(obj:0)
C1162                                               1 	(obj:0)
C1173                                               1 	(obj:0)
C1179                                               1 	(obj:0)
C1192                                               1 	(obj:0)
C1195                                               1 	(obj:0)
C1437                                               1 	(obj:0)
C1442                                               1 	(obj:0)
C1447                                               1 	(obj:0)
C1448                                               1 	(obj:0)
C1459                                               1 	(obj:0)
C1460                                               1 	(obj:0)
C1721                                               1 	(obj:0)
C1722                                               1 	(obj:0)
C1725                                               1 	(obj:0)
C1726                                               1 	(obj:0)
C1729                                               1 	(obj:0)
C1730                                               1 	(obj:0)
C1732                                               1 	(obj:0)
C1733                                               1 	(obj:0)
C1735                                               1 	(obj:0)
C1736                                               1 	(obj:0)
C1739                                               1 	(obj:0)
C1740                                               1 	(obj:0)
C1743                                               1 	(obj:0)
C1744                                               1 	(obj:0)
C1748                                               1 	(obj:0)
C1750                                               1 	(obj:0)
C1761                                               1 	(obj:0)
C1762                                               1 	(obj:0)
C1763                                               1 	(obj:0)
C1765                                               1 	(obj:0)
C1839                                               1 	(obj:0)
C1849                                               1 	(obj:0)
C1889                                               1 	(obj:0)
C1897                                               1 	(obj:0)
C1940                                               1 	(obj:0)
C1960                                               1 	(obj:0)
C1970                                               1 	(obj:0)
C2007                                               1 	(obj:0)
C2033                                               1 	(obj:0)
C2042                                               1 	(obj:0)
C2087                                               1 	(obj:0)
C2090                                               1 	(obj:0)
C2114                                               1 	(obj:0)
C2156                                               1 	(obj:0)
C2161                                               1 	(obj:0)
C2185                                               1 	(obj:0)
C2216                                               1 	(obj:0)
C2233                                               1 	(obj:0)
C2278                                               1 	(obj:0)
C2300                                               1 	(obj:0)
C2325                                               1 	(obj:0)
C2336                                               1 	(obj:0)
C2363                                               1 	(obj:0)
C2397                                               1 	(obj:0)
C2402                                               1 	(obj:0)
C2429                                               1 	(obj:0)
C2458                                               1 	(obj:0)
C2473                                               1 	(obj:0)
C2518                                               1 	(obj:0)
C2521                                               1 	(obj:0)
C2554                                               1 	(obj:0)
C2569                                               1 	(obj:0)
C2616                                               1 	(obj:0)
C2617                                               1 	(obj:0)
C2645                                               1 	(obj:0)
C2665                                               1 	(obj:0)
C2689                                               1 	(obj:0)
C2713                                               1 	(obj:0)
C2737                                               1 	(obj:0)
C2761                                               1 	(obj:0)
C2785                                               1 	(obj:0)
C2809                                               1 	(obj:0)
C2847                                               1 	(obj:0)
C2866                                               1 	(obj:0)
C2881                                               1 	(obj:0)
C2905                                               1 	(obj:0)
C2929                                               1 	(obj:0)
C2953                                               1 	(obj:0)
C2977                                               1 	(obj:0)
C3001                                               1 	(obj:0)
C3025                                               1 	(obj:0)
C3049                                               1 	(obj:0)
C3087                                               1 	(obj:0)
C3097                                               1 	(obj:0)
C3125                                               1 	(obj:0)
C3145                                               1 	(obj:0)
C3186                                               1 	(obj:0)
C3193                                               1 	(obj:0)
C3233                                               1 	(obj:0)
C3241                                               1 	(obj:0)
C3265                                               1 	(obj:0)
C3292                                               1 	(obj:0)
C3313                                               1 	(obj:0)
C3337                                               1 	(obj:0)
C3361                                               1 	(obj:0)
C3385                                               1 	(obj:0)
C3419                                               1 	(obj:0)
C3434                                               1 	(obj:0)
C3478                                               1 	(obj:0)
C3492                                               1 	(obj:0)
C3524                                               1 	(obj:0)
C3540                                               1 	(obj:0)
C3554                                               1 	(obj:0)
C3590                                               1 	(obj:0)
C3602                                               1 	(obj:0)
C3625                                               1 	(obj:0)
C3649                                               1 	(obj:0)
C3678                                               1 	(obj:0)
C3697                                               1 	(obj:0)
C3721                                               1 	(obj:0)
C3745                                               1 	(obj:0)
C3787                                               1 	(obj:0)
C3806                                               1 	(obj:0)
C3824                                               1 	(obj:0)
C3862                                               1 	(obj:0)
C3865                                               1 	(obj:0)
C3891                                               1 	(obj:0)
C3926                                               1 	(obj:0)
C3937                                               1 	(obj:0)
C3961                                               1 	(obj:0)
C4007                                               1 	(obj:0)
C4020                                               1 	(obj:0)
C4041                                               1 	(obj:0)
C4072                                               1 	(obj:0)
C4090                                               1 	(obj:0)
C4128                                               1 	(obj:0)
C4139                                               1 	(obj:0)
C4162                                               1 	(obj:0)
C4177                                               1 	(obj:0)
C4217                                               1 	(obj:0)
C4236                                               1 	(obj:0)
C4265                                               1 	(obj:0)
C4286                                               1 	(obj:0)
C4297                                               1 	(obj:0)
C4341                                               1 	(obj:0)
C4368                                               1 	(obj:0)
C4379                                               1 	(obj:0)
C4414                                               1 	(obj:0)
C4417                                               1 	(obj:0)
C4461                                               1 	(obj:0)
C4465                                               1 	(obj:0)
C4489                                               1 	(obj:0)
C4513                                               1 	(obj:0)
C4537                                               1 	(obj:0)
C4572                                               1 	(obj:0)
C4585                                               1 	(obj:0)
C4627                                               1 	(obj:0)
C4655                                               1 	(obj:0)
C4657                                               1 	(obj:0)
C4681                                               1 	(obj:0)
C4705                                               1 	(obj:0)
C4730                                               1 	(obj:0)
C4753                                               1 	(obj:0)
C4783                                               1 	(obj:0)
C4814                                               1 	(obj:0)
C4845                                               1 	(obj:0)
C4871                                               1 	(obj:0)
C4873                                               1 	(obj:0)
C4911                                               1 	(obj:0)
C4922                                               1 	(obj:0)
C4945                                               1 	(obj:0)
C4969                                               1 	(obj:0)
C5015                                               1 	(obj:0)
C5039                                               1 	(obj:0)
C5052                                               1 	(obj:0)
C5087                                               1 	(obj:0)
C5102                                               1 	(obj:0)
C5135                                               1 	(obj:0)
C5149                                               1 	(obj:0)
C5161                                               1 	(obj:0)
C5185                                               1 	(obj:0)
C5209                                               1 	(obj:0)
C5233                                               1 	(obj:0)
C5257                                               1 	(obj:0)
C5282                                               1 	(obj:1)
C5292                                               1 	(obj:1)
C5297                                               1 	(obj:1)
C5303                                               1 	(obj:1)
C5311                                               1 	(obj:0)
C5313                                               1 	(obj:0)
C5314                                               1 	(obj:0)
C5315                                               1 	(obj:0)
C5316                                               1 	(obj:0)
C5372                                               1 	(obj:0)
C5374                                               1 	(obj:0)
C5376                                               1 	(obj:0)
C5404                                               1 	(obj:0)
C5405                                               1 	(obj:0)
C5406                                               1 	(obj:0)
C5437                                               1 	(obj:0)
C5438                                               1 	(obj:0)
C5439                                               1 	(obj:0)
C5440                                               1 	(obj:0)
C5442                                               1 	(obj:0)
C5453                                               1 	(obj:0)
C5482                                               1 	(obj:0)
C5484                                               1 	(obj:0)
C5497                                               1 	(obj:0)
C5498                                               1 	(obj:0)
C5517                                               1 	(obj:0)
C5757                                               4 	(obj:0)
C5738                                               2 	(obj:0)
C5737                                               4 	(obj:0)
C5724                                               2 	(obj:0)
C5722                                               4 	(obj:0)
C5693                                               4 	(obj:0)
C5682                                               4 	(obj:0)
C5680                                               4 	(obj:0)
C5679                                               4 	(obj:0)
C5678                                               4 	(obj:0)
C5677                                               4 	(obj:0)
C5646                                               2 	(obj:0)
C5645                                               2 	(obj:0)
C5644                                               2 	(obj:0)
C5616                                               2 	(obj:0)
C5614                                               2 	(obj:0)
C5612                                               2 	(obj:0)
C5556                                               4 	(obj:0)
C5555                                               4 	(obj:0)
C5554                                               4 	(obj:0)
C5553                                               4 	(obj:0)
C5551                                               4 	(obj:0)
C5543                                               8 	(obj:0)
C5537                                               4 	(obj:0)
C5532                                               4 	(obj:0)
C5522                                               8 	(obj:0)
